unsat
(define-fun SC ((s (_ BitVec 4)) (t (_ BitVec 4))) Bool (bvult #b0000 t))
0.36user 0.01system 0:00.38elapsed 99%CPU (0avgtext+0avgdata 30184maxresident)k
0inputs+8outputs (0major+2110minor)pagefaults 0swaps
